341253
18,74,62,4,37,25,30,38,39,27,15,23,49,29,64,21,43,17,66,72,65,28,9,44,61,75,69,13,63,0,45,70,1,52,12,67,41,58,78,26,60,81,57,76,71,46,19,8,31,34,2,5,51,14,50,16,24,11,56,80,47,20,53,36,79,35,7,73,10,55,22,6,32,68,54,42,59,77,82,33,48,40,3
